[AdminPlayerList]
; EN: ColumnHeadings=("Player Name","Unique ID","IP")
ColumnHeadings=("Nombre Jugador","ID única","IP")

[Browser_AddBuddy]
; EN: AddBuddyDesc.Caption="Add Buddy"
AddBuddyDesc.Caption="Añadir Amigo"
; EN: BuddyEntryBox.Caption="Buddy Name: "
BuddyEntryBox.Caption="Nombre de Amigo: "
; EN: CancelButton.Caption="CANCEL"
CancelButton.Caption="CANCELAR"
; EN: OkButton.Caption="OK"
OkButton.Caption="ACEPTAR"

[Browser_BuddyList]
; EN: ColumnHeadings=("Buddy Name")
ColumnHeadings=("Nombre Amigo")

[Browser_IRC]
; EN: SystemLabel="System"
SystemLabel="Sistema"
; EN: LeaveChannelCaption="LEAVE CHANNEL"
LeaveChannelCaption="ABANDONAR CANAL"
; EN: LeavePrivateCaptionHead="CLOSE "
LeavePrivateCaptionHead="CERRAR "
; EN: ChooseNewNickText="Choose A New Chat Nickname"
ChooseNewNickText="Escoge Un Nuevo Apodo Para Chat"
; EN: MyBackButton.Caption="BACK"
MyBackButton.Caption="VOLVER"
; EN: MyChangeNickButton.Caption="CHANGE NICK"
MyChangeNickButton.Caption="CAMBIAR APODO"

[Browser_IconKey]
; EN: DialogText.Caption="Server Icon Key"
DialogText.Caption="Clave de Icono del Servidor"
; EN: OkButton.Caption="OK"
OkButton.Caption="ACEPTAR"

[Browser_MOTD]
; EN: VersionString="Ver."
VersionString="Ver."
; EN: MyBackButton.Caption="BACK"
MyBackButton.Caption="VOLVER"
; EN: MyRefreshButton.Caption="REFRESH"
MyRefreshButton.Caption="ACTUALIZAR"
; EN: MyUpgradeButton.Caption="UPGRADE"
MyUpgradeButton.Caption="MEJORAR"

[Browser_OpenIP]
; EN: CancelButton.Caption="CANCEL"
CancelButton.Caption="CANCELAR"
; EN: IpEntryBox.Caption="IP Address: "
IpEntryBox.Caption="Dirección IP: "
; EN: OkButton.Caption="OK"
OkButton.Caption="ACEPTAR"
; EN: OpenIPDesc.Caption="Enter New IP Address"
OpenIPDesc.Caption="Introducir Nueva Dirección IP"

[Browser_Page]
; EN: StartQueryString="Querying Master Server"
StartQueryString="Consultando Servidor Principal"
; EN: AuthFailString="Authentication Failed"
AuthFailString="Error Al Ingresar"
; EN: ConnFailString="Connection Failed - Retrying"
ConnFailString="Error de Conexión: Reintentando"
; EN: ConnTimeoutString="Connection Timed Out"
ConnTimeoutString="Tiempo de Conexión Agotado"
; EN: QueryCompleteString="Query Complete!"
QueryCompleteString="¡Consulta Completada!"
; EN: RefreshCompleteString="Refresh Complete!"
RefreshCompleteString="¡Actualización Completada!"
; EN: ReadyString="Ready"
ReadyString="Listo"

[Browser_PlayersList]
; EN: ColumnHeadings=("Player Name","Score","Stats ID","Ping")
ColumnHeadings=("Nombre Jugador","Puntos","ID Estadísticas","Ping")

[Browser_Prefs]
; EN: ViewStatsStrings[0]="Any Servers"
ViewStatsStrings[0]="Cualquier Servidor"
; EN: ViewStatsStrings[1]="Only Stats Servers"
ViewStatsStrings[1]="Solo Servidores de Estadísticas"
; EN: ViewStatsStrings[2]="No Stats Servers"
ViewStatsStrings[2]="Sin Servidores de Estadísticas"
; EN: MutatorModeStrings[0]="Any Mutators"
MutatorModeStrings[0]="Cualquier Mutador"
; EN: MutatorModeStrings[1]="No Mutators"
MutatorModeStrings[1]="Sin Mutadores"
; EN: MutatorModeStrings[2]="This Mutator"
MutatorModeStrings[2]="Este Mutador"
; EN: MutatorModeStrings[3]="Not This Mutator"
MutatorModeStrings[3]="Sin Este Mutador"
; EN: WeaponStayStrings[0]="Any Servers"
WeaponStayStrings[0]="Cualquier Servidor"
; EN: WeaponStayStrings[1]="Only Weapon Stay Servers"
WeaponStayStrings[1]="Solo Servidores Con Permanencia de Armas"
; EN: WeaponStayStrings[2]="No Weapon Stay Servers"
WeaponStayStrings[2]="Servidores Sin Permanencia de Armas"
; EN: TranslocatorStrings[0]="Any Servers"
TranslocatorStrings[0]="Cualquier servidor"
; EN: TranslocatorStrings[1]="Only Translocator Servers"
TranslocatorStrings[1]="Solo Servidores Con Translocalizador"
; EN: TranslocatorStrings[2]="No Translocator Servers"
TranslocatorStrings[2]="Sin Servidores Con Translocalizador"
; EN: CustomQuery.Caption="Custom Query"
CustomQuery.Caption="Consulta Personalizada"
; EN: FilterTitle.Caption="Server Filtering Options:"
FilterTitle.Caption="Opciones de Filtrado del Servidor:"
; EN: MaxGamespeed.Caption="Max"
MaxGamespeed.Caption="Máx"
; EN: MinGamespeed.Caption="Game Speed Min"
MinGamespeed.Caption="Velocidad Mínima de Juego"
; EN: MutatorModeCombo.Caption="Mutators"
MutatorModeCombo.Caption="Mutadores"
; EN: MyBackButton.Caption="BACK"
MyBackButton.Caption="VOLVER"
; EN: MyKeyButton.Caption="ICON KEY"
MyKeyButton.Caption="CLAVE DE ICONO"
; EN: NoBotServersCheckBox.Caption="No Servers With Bots"
NoBotServersCheckBox.Caption="Sin Servidores Con Bots"
; EN: NoEmptyCheckBox.Caption="No Empty Servers"
NoEmptyCheckBox.Caption="Sin Servidores Vacíos"
; EN: NoFullCheckBox.Caption="No Full Servers"
NoFullCheckBox.Caption="Sin Servidores Llenos"
; EN: NoPasswdCheckBox.Caption="No Passworded Servers"
NoPasswdCheckBox.Caption="Sin Servidores Con Contraseña"
; EN: OnlyStandardCheckBox.Caption="Only Standard Servers"
OnlyStandardCheckBox.Caption="Solo Servidores Estándar"
; EN: StatsViewCombo.Caption="Stats Servers"
StatsViewCombo.Caption="Servidores de Estadísticas"
; EN: TranslocatorCombo.Caption="Translocator"
TranslocatorCombo.Caption="Translocalizador"
; EN: WeaponStayCombo.Caption="Weapon Stay"
WeaponStayCombo.Caption="Permanencia de Armas"

[Browser_RulesList]
; EN: TrueString="Enabled"
TrueString="Activado"
; EN: FalseString="Disabled"
FalseString="Desactivado"
; EN: ServerModeString="Server Mode"
ServerModeString="Modo Servidor"
; EN: DedicatedString="Dedicated"
DedicatedString="Dedicado"
; EN: NonDedicatedString="Non-Dedicated"
NonDedicatedString="No Dedicado"
; EN: AdminNameString="Server Admin"
AdminNameString="Nombre de Admin"
; EN: AdminEmailString="Admin Email"
AdminEmailString="E-mail de Admin"
; EN: PasswordString="Requires Password"
PasswordString="Requiere Contraseña"
; EN: GameStatsString="UT2004 Stats"
GameStatsString="Estadísticas de UT2004"
; EN: GameSpeedString="Game Speed"
GameSpeedString="Velocidad de Juego"
; EN: MutatorString="Mutator"
MutatorString="Mutador"
; EN: BalanceTeamsString="Bots Balance Teams"
BalanceTeamsString="Bots Balancean Equipos"
; EN: PlayersBalanceTeamsString="Balance Teams"
PlayersBalanceTeamsString="Balance de Equipo"
; EN: FriendlyFireString="Friendly Fire"
FriendlyFireString="Fuego Amigo"
; EN: GoalScoreString="Goal Score"
GoalScoreString="Límite de Puntos"
; EN: TimeLimitString="Time Limit"
TimeLimitString="Límite de Tiempo"
; EN: MinPlayersString="Minimum Players (bots)"
MinPlayersString="Mín. Jugadores (bots)"
; EN: TranslocatorString="Translocator"
TranslocatorString="Translocalizador"
; EN: WeaponStayString="Weapons Stay"
WeaponStayString="Permanencia de Armas"
; EN: ColumnHeadings=("Setting","Value")
ColumnHeadings=("Configuración","Valor")

[Browser_ServerListPageBase]
; EN: AddFavoriteButton.Caption="ADD FAVORITE"
AddFavoriteButton.Caption="AÑADIR FAVORITO"
; EN: BackButton.Caption="BACK"
BackButton.Caption="VOLVER"
; EN: JoinButton.Caption="JOIN"
JoinButton.Caption="UNIRSE"
; EN: RefreshButton.Caption="REFRESH LIST"
RefreshButton.Caption="ACTUALIZAR LISTA"
; EN: SpectateButton.Caption="SPECTATE"
SpectateButton.Caption="ESPECTAR"

[Browser_ServerListPageBuddy]
; EN: AddBuddyCaption="ADD BUDDY"
AddBuddyCaption="AÑADIR AMIGO"
; EN: RemoveBuddyCaption="REMOVE BUDDY"
RemoveBuddyCaption="ELIMINAR AMIGO"

[Browser_ServerListPageFavorites]
; EN: RemoveFavoriteCaption="REMOVE FAVORITE"
RemoveFavoriteCaption="ELIMINAR FAVORITO"
; EN: AddIPCaption="ADD IP"
AddIPCaption="AÑADIR IP"
; EN: RePingCaption="RE-PING LIST"
RePingCaption="RE-CONSULTAR LISTA"

[Browser_ServerListPageMS]
; EN: QueryFinHead="Query Complete! Received: "
QueryFinHead="¡Consulta completada! Recibidos: "
; EN: QueryFinTail=" Servers"
QueryFinTail=" Servidores"
; EN: PingRecvString="Pinging Servers"
PingRecvString="Consultando Servidores"
; EN: MustUpgradeString="Upgrade available. Please refresh the News page."
MustUpgradeString="Mejora disponible. Actualiza página de noticias."
; EN: RefreshFinHead="Pinging Complete! "
RefreshFinHead="¡Ping completo! "
; EN: RefreshFinMid=" Servers, "
RefreshFinMid=" Servidores, "
; EN: RefreshFinTail=" Players"
RefreshFinTail=" Jugadores"
; EN: RePingServersCaption="RE-PING LIST"
RePingServersCaption="RE-CONSULTAR LISTA"
; EN: RefreshCaption="REFRESH LIST"
RefreshCaption="ACTUALIZAR LISTA"

[Browser_ServerListPageMSCustom]
; EN: MyGameTypeLabel.Caption="Game Type"
MyGameTypeLabel.Caption="Tipo de Juego"

[Browser_ServersList]
; EN: IconDescriptions=("Passworded","Stats Enabled","Latest Version","Listen Server","Instagib","Standard Server","UT Classic")
IconDescriptions=("Con Contraseña","Estadísticas Activadas","Última Versión","Servidor NO Dedicado","Instagib","Servidor Estándar","UT Clásico")
; EN: ColumnHeadings=(,"Server Name","Map","Players","Ping")
ColumnHeadings=(,"Nombre Servidor","Mapa","Jugadores","Ping")

[DefaultCrosshairs]
; EN: Crosshair=((FriendlyName="Cross (1)"),(FriendlyName="Cross (2)"),(FriendlyName="Cross (3)"),(FriendlyName="Cross (4)"),(FriendlyName="Cross (5)"),(FriendlyName="Dot"),(FriendlyName="Pointer"),(FriendlyName="Triad (1)"),(FriendlyName="Triad (2)"),(FriendlyName="Triad (3)"),(FriendlyName="Bracket (1)"),(FriendlyName="Bracket (2)"),(FriendlyName="Circle (1)"),(FriendlyName="Circle (2)"))
Crosshair=((FriendlyName="Cruz (1)"),(FriendlyName="Cruz (2)"),(FriendlyName="Cruz (3)"),(FriendlyName="Cruz (4)"),(FriendlyName="Cruz (5)"),(FriendlyName="Punto"),(FriendlyName="Puntero"),(FriendlyName="Triada (1)"),(FriendlyName="Triada (2)"),(FriendlyName="Triada (3)"),(FriendlyName="Corchete (1)"),(FriendlyName="Corchete (2)"),(FriendlyName="Círculo (1)"),(FriendlyName="Círculo (2)"))

[ExtendedConsole]
; EN: AddedCurrentHead="Added Server:"
AddedCurrentHead="Servidor Añadido:"
; EN: AddedCurrentTail="To Favorites!"
AddedCurrentTail="¡A Favoritos!"
; EN: ServerFullMsg="Server is now full"
ServerFullMsg="El servidor ahora está lleno"
; EN: SMStateName[0]="Speech Menu"
SMStateName[0]="Menú de Diálogo"
; EN: SMStateName[1]="Voice Chat"
SMStateName[1]="Chat de Voz"
; EN: SMStateName[2]="Acknowledge"
SMStateName[2]="Recibido"
; EN: SMStateName[3]="Friendly Fire"
SMStateName[3]="Fuego Amigo"
; EN: SMStateName[4]="Order"
SMStateName[4]="Orden"
; EN: SMStateName[5]="Other"
SMStateName[5]="Otros"
; EN: SMStateName[6]="Taunt"
SMStateName[6]="Burla"
; EN: SMStateName[7]="Taunt Anim"
SMStateName[7]="Animación de Burla"
; EN: SMStateName[8]="Player Select"
SMStateName[8]="Seleccionar Jugador"
; EN: SMChannelOptions[0]="Join"
SMChannelOptions[0]="Unirse"
; EN: SMChannelOptions[1]="Leave"
SMChannelOptions[1]="Salir"
; EN: SMChannelOptions[2]="Talk"
SMChannelOptions[2]="Hablar"
; EN: SMAllString="[ALL]"
SMAllString="[TODOS]"
; EN: SMMoreString="[MORE]"
SMMoreString="[MÁS]"

[GUIController]
; EN: DesignModeHints=((Key=" Key",Description="                                Description"),(Key=" (F1)",Description="                                View this help screen"),(Key=" Ctrl + Alt + D",Description="                      Toggles design mode"),(Key=" Ctrl + Alt + E",Description="                      Toggles property editor mode"),(Key=" [Ctrl +] H",Description="                          Toggles active/focused info"),(Key=" [Ctrl +] I",Description="                          Toggle interactive mode"),(Key=" [Ctrl +] P",Description="                          Toggles full MenuOwner chains for active/focused"),(Key=" [Ctrl +] C",Description="                          Copy MoveControl position to clipboard"),(Key=" [Ctrl +] X",Description="                          Export MoveControl to clipboard"),(Key=" [Ctrl +] U",Description="                          Refresh the property window in the designer"),(Key=" [Ctrl +] Up/Down/Left/Right",Description="         Reposition MoveControl using arrow keys"),(Key=" [Ctrl +] +/-",Description="                        Resize MoveControl vertically"),(Key=" [Ctrl +] Num+/Num-",Description="                  Resize selected component horizontally"),(Key=" [Ctrl +] WheelUp",Description="                    Set MoveControl to MoveControl's menuowner"),(Key=" [Ctrl +] WheenDown",Description="                  Set MoveControl to MoveControl's focused control"),(Key=" [(Ctrl + Alt) +] MouseX/Y+LMouse",Description="    Reposition MoveControl using mouse"),(Key=" (Shift)",Description="                             Hides all design mode indicators"),(Key=" (Ctrl + Alt)",Description="                        View focus chain"),(Key=" [Ctrl +] Tab",Description="                        Select new MoveControl"),(Key=" [Ctrl +] LMouse",Description="                     Select new MoveControl"))
DesignModeHints=((Key=" Tecla",Description="                                Descripción"),(Key=" (F1)",Description="                                Ver esta pantalla de ayuda"),(Key=" Ctrl + Alt + D",Description="                      Activa el modo diseño"),(Key=" Ctrl + Alt + E",Description="                      Activa el modo editor de propiedades"),(Key=" [Ctrl +] H",Description="                          Activa info activa/enfoque"),(Key=" [Ctrl +] I",Description="                          Activa modo interactivo"),(Key=" [Ctrl +] P",Description="                          Activa cadenas de menú propietario completo para activo/enfoque"),(Key=" [Ctrl +] C",Description="                          Copiar posición MovimientoControl al portapapeles"),(Key=" [Ctrl +] X",Description="                          Exportar MovimientoControl al portapapeles"),(Key=" [Ctrl +] U",Description="                          Actualizar ventana de propiedad en el diseñador"),(Key=" [Ctrl +] Arriba/Abajo/Izquierda/Derecha",Description="         Reposicionar MovimientoControl usando las teclas de flecha"),(Key=" [Ctrl +] +/-",Description="                        Redimensionar MovimientoControl verticalmente"),(Key=" [Ctrl +] Num+/Num-",Description="                  Redimensionar componente seleccionado horizontalmente"),(Key=" [Ctrl +] WheelUp",Description="                    Fijar MovimientoControl a menú propietario MovimientoControl"),(Key=" [Ctrl +] WheenDown",Description="                  Establecer MovimientoControl a control enfoque de MovimientoControl"),(Key=" [(Ctrl + Alt) +] MouseX/Y+LMouse",Description="    Reposicionar MovimientoControl con el ratón"),(Key=" (Shift)",Description="                             Oculta todos los indicadores del modo diseño"),(Key=" (Ctrl + Alt)",Description="                        Ver cadena de enfoque"),(Key=" [Ctrl +] Tab",Description="                        Seleccionar nuevo MovimientoControl"),(Key=" [Ctrl +] LMouse",Description="                     Seleccionar nuevo MovimientoControl"))

[GUIQuestionPage]
; EN: ButtonNames=("Ok","Cancel","Retry","Continue","Yes","No","Abort","Ignore")
ButtonNames=("Aceptar","Cancelar","Reintentar","Continuar","Sí","No","Abortar","Ignorar")

[HudBTeamDeathMatch]
; EN: LinkEstablishedMessage="LINK ESTABLISHED"
LinkEstablishedMessage="ENLACE ESTABLECIDO"

[HudBase]
InstructionFontName=UT2003Fonts.jFontMono800x600
; EN: LevelActionLoading="LOADING..."
LevelActionLoading="CARGANDO..."
; EN: LevelActionPaused="PAUSED"
LevelActionPaused="PAUSA"
LevelActionFontName=UT2003Fonts.FontMedium
; EN: WonMatchPostFix=" won the match!"
WonMatchPostFix=" ha ganado el encuentro"
; EN: WaitingToSpawn="Press [Fire] to join the match!"
WaitingToSpawn="¡Pulsa [Disparo] para unirte al encuentro!"
; EN: AtMenus="Press [ESC] to close menu"
AtMenus="Pulsa [Esc] para cerrar este menú"
; EN: YouveWonTheMatch="You've won the match!"
YouveWonTheMatch="¡Has ganado el encuentro!"
; EN: YouveLostTheMatch="You've lost the match."
YouveLostTheMatch="Has perdido el encuentro."
; EN: NowViewing="Now viewing"
NowViewing="Ahora viendo a"
; EN: ScoreText="Score"
ScoreText="Puntaje"
; EN: InitialViewingString="Press Fire to View a different Player"
InitialViewingString="Pulsa [Disparo] para ver desde un jugador diferente"
ProgressFontName=UT2003Fonts.FontMedium
FontArrayNames[0]=UT2003Fonts.FontEurostile37
FontArrayNames[1]=UT2003Fonts.FontEurostile29
FontArrayNames[2]=UT2003Fonts.FontEurostile24
FontArrayNames[3]=UT2003Fonts.FontEurostile21
FontArrayNames[4]=UT2003Fonts.FontEurostile17
FontArrayNames[5]=UT2003Fonts.FontEurostile14
FontArrayNames[6]=UT2003Fonts.FontEurostile12
FontArrayNames[7]=UT2003Fonts.FontEurostile9
FontArrayNames[8]=UT2003Fonts.FontSmallText

[HudCTeamDeathMatch]
; EN: LinkEstablishedMessage="LINK ESTABLISHED"
LinkEstablishedMessage="ENLACE ESTABLECIDO"

[IRCLink]
; EN: InvalidAddressText="Invalid server address, aborting."
InvalidAddressText="Dirección de servidor inválida, cancelando."
; EN: ErrorBindingText="Error binding local port, aborting."
ErrorBindingText="Error vinculando al puerto local, cancelando."
; EN: ResolveFailedText="Failed to resolve server address, aborting."
ResolveFailedText="Imposible resolver la dirección del servidor, cancelando."
; EN: ConnectedText="Connected."
ConnectedText="Conectado."
; EN: ConnectingToText="Connecting to"
ConnectingToText="Conectando a"
; EN: TimeOutError="Timeout connecting to server."
TimeOutError="Tiempo de espera agotado para conectarse al servidor."
; EN: InviteString="invites you to join"
InviteString="te invita a unirte a"
; EN: NickInUseText="Nickname Already In Use"
NickInUseText="Apodo Ya Usado"
; EN: NickInvalidText="Nickname Is Invalid"
NickInvalidText="Apodo Inválido"

[IRC_NewNick]
; EN: NewNickEntry.Caption="New Nickname: "
NewNickEntry.Caption="Nuevo Apodo: "
; EN: OkButton.Caption="OK"
OkButton.Caption="ACEPTAR"

[IRC_Page]
; EN: HasLeftText="has left"
HasLeftText="se ha ido"
; EN: HasJoinedText="has joined"
HasJoinedText="se ha unido"
; EN: WasKickedByText="was kicked by"
WasKickedByText="ha sido expulsado por"
; EN: NowKnownAsText="is now known as"
NowKnownAsText="ahora se llama"
; EN: QuitText="Quit"
QuitText="Salir"
; EN: SetsModeText="sets mode"
SetsModeText="establece el modo"
; EN: NewTopicText="Topic"
NewTopicText="Tópico"

[IRC_System]
; EN: NotInAChannelText="Not in a channel!"
NotInAChannelText="¡No está en canal!"
; EN: KickedFromText="You were kicked from"
KickedFromText="Has sido expulsado de"
; EN: ByText="by"
ByText="por"
; EN: IsAwayText="is away"
IsAwayText="está ausente"
; EN: ConnectText="CONNECT"
ConnectText="CONECTAR"
; EN: DisconnectText="DISCONNECT"
DisconnectText="DESCONECTAR"
; EN: MyChannelLabel.Caption="Channel"
MyChannelLabel.Caption="Canal"
; EN: MyJoinChannelButton.Caption="JOIN CHANNEL"
MyJoinChannelButton.Caption="UNIRSE AL CANAL"
; EN: MyRemoveChannelButton.Caption="REMOVE CHANNEL"
MyRemoveChannelButton.Caption="ELIMINAR CANAL"
; EN: MyRemoveServerButton.Caption="REMOVE SERVER"
MyRemoveServerButton.Caption="ELIMINAR SERVIDOR"
; EN: MyServerLabel.Caption="Server"
MyServerLabel.Caption="Servidor"

[JoeTest]
; EN: TestButton1.Caption="Close Window"
TestButton1.Caption="Cerrar Ventana"
; EN: TitleText.Caption="Joe's Amazing Test GUI"
TitleText.Caption="GUI de Prueba Increíble de Joe"

[JoeTestPanelA]
; EN: TestButtonA.Caption="Wow"
TestButtonA.Caption="Guau"
; EN: TestButtonB.Caption="Damn"
TestButtonB.Caption="Maldición"

[ScoreBoardDeathMatch]
; EN: RankText="RANK"
RankText="RANGO"
; EN: PlayerText="PLAYER"
PlayerText="JUGADOR"
; EN: PointsText="SCORE"
PointsText="PUNTAJE"
; EN: TimeText="TIME:"
TimeText="TIEMPO:"
; EN: PingText="PING:"
PingText="PING:"
; EN: PLText="P/L:"
PLText="P/L:"
; EN: DeathsText="DEATHS"
DeathsText="MUERTES"
; EN: AdminText="ADMIN"
AdminText="ADMIN"
; EN: NetText="NET"
NetText="RED"
; EN: FooterText="Elapsed Time:"
FooterText="Tiempo Transcurrido:"
; EN: MatchIDText="UT2004 Stats Match ID"
MatchIDText="ID Partido Estadísticas UT2004"
; EN: OutText="OUT"
OutText="ELIMINADO"
; EN: OutFireText="   You are OUT. [Fire] to view other players."
OutFireText="   Estás ELIMINADO. Pulsa [Disparo] para ver a otros jugadores."
; EN: ReadyText="READY"
ReadyText="LISTO"
; EN: NotReadyText="NOT RDY"
NotReadyText="NO LISTO"
; EN: SkillLevel[0]="NOVICE"
SkillLevel[0]="NOVATO"
; EN: SkillLevel[1]="AVERAGE"
SkillLevel[1]="PROMEDIO"
; EN: SkillLevel[2]="EXPERIENCED"
SkillLevel[2]="EXPERIMENTADO"
; EN: SkillLevel[3]="SKILLED"
SkillLevel[3]="EXPERTO"
; EN: SkillLevel[4]="ADEPT"
SkillLevel[4]="ADEPTO"
; EN: SkillLevel[5]="MASTERFUL"
SkillLevel[5]="MAESTRO"
; EN: SkillLevel[6]="INHUMAN"
SkillLevel[6]="SUPERHUMANO"
; EN: SkillLevel[7]="GODLIKE"
SkillLevel[7]="SUPREMO"
; EN: MaxLives="MAX LIVES:"
MaxLives="VIDAS MÁX:"
; EN: FragLimit="FRAG LIMIT:"
FragLimit="LÍMITE DE BAJAS:"
; EN: FPH="PPH"
FPH="BPH"
; EN: GameType="GAME"
GameType="JUEGO"
; EN: MapName=" in "
MapName=" en "
; EN: Restart="   You were killed. Press Fire to respawn!"
Restart="   Te han matado. ¡Pulsa disparo para reaparecer!"
; EN: Continue=" Press [Fire] to continue!"
Continue="¡Pulsa [Disparo] para continuar!"
; EN: Ended="The match has ended."
Ended="¡El encuentro ha terminado!"
; EN: TimeLimit="REMAINING TIME:"
TimeLimit="TIEMPO RESTANTE:"
Spacer=" "

[ScoreBoardTeamDeathMatch]
; EN: FragLimit="SCORE LIMIT:"
FragLimit="LÍMITE DE PUNTUACIÓN:"

[ServerBrowser]
; EN: MutantTypeName="Mutant"
MutantTypeName="Mutante"
; EN: InvasionTypeName="Invasion"
InvasionTypeName="Invasión"
; EN: LMSTypeName="Last Man Standing"
LMSTypeName="Último Hombre en Pie"
MutantType="xMutantGame"
InvasionType="Invasion"
LMSType="xLastManStanding"
; EN: MyBRServerListPage.PageCaption="Bombing Run"
MyBRServerListPage.PageCaption="Carrera de Bombardeo"
; EN: MyBuddiesPage.PageCaption="Buddies"
MyBuddiesPage.PageCaption="Amigos"
; EN: MyCTFServerListPage.PageCaption="CTF"
MyCTFServerListPage.PageCaption="CLB"
; EN: MyCustomServerListPage.PageCaption="Custom"
MyCustomServerListPage.PageCaption="Personalizado"
; EN: MyDMServerListPage.PageCaption="DM"
MyDMServerListPage.PageCaption="PaM"
; EN: MyDomServerListPage.PageCaption="Double Dom"
MyDomServerListPage.PageCaption="Dominación Doble"
; EN: MyFavoritesPage.PageCaption="Favorites"
MyFavoritesPage.PageCaption="Favoritos"
; EN: MyIRCPage.PageCaption="Chat"
MyIRCPage.PageCaption="Chat"
; EN: MyLANPage.PageCaption="LAN"
MyLANPage.PageCaption="LAN"
; EN: MyMOTDPage.PageCaption="News"
MyMOTDPage.PageCaption="Noticias"
; EN: MyPrefsPage.PageCaption="Filter"
MyPrefsPage.PageCaption="Filtro"
; EN: MyTDMServerListPage.PageCaption="Team DM"
MyTDMServerListPage.PageCaption="PaM por Equipos"
; EN: ServerBrowserHeader.Caption="Server Browser"
ServerBrowserHeader.Caption="Explorador de Servidores"

[Tab_AdminPlayerList]
; EN: AdminPlayerBan.Caption="Ban"
AdminPlayerBan.Caption="Vetar"
; EN: AdminPlayerBan.Hint="Ban this player"
AdminPlayerBan.Hint="Vetar a este jugador"
; EN: AdminPlayerKick.Caption="Kick"
AdminPlayerKick.Caption="Expulsar"
; EN: AdminPlayerKick.Hint="Kick this player"
AdminPlayerKick.Hint="Expulsar a este jugador"

[Tab_AudioSettings]
; EN: AudioModes[0]="Software 3D Audio"
AudioModes[0]="Sonido 3D por Software"
; EN: AudioModes[1]="Hardware 3D Audio"
AudioModes[1]="Sonido 3D por Hardware"
; EN: AudioModes[2]="Hardware 3D Audio + EAX"
AudioModes[2]="Sonido 3D por Hardware + EAX"
; EN: AudioModes[3]="Safe Mode"
AudioModes[3]="Modo Seguro"
; EN: VoiceModes[0]="All"
VoiceModes[0]="Todos"
; EN: VoiceModes[1]="No auto-taunts"
VoiceModes[1]="Sin Auto-burlas"
; EN: VoiceModes[2]="No taunts"
VoiceModes[2]="Sin Burlas"
; EN: VoiceModes[3]="None"
VoiceModes[3]="Ninguno"
; EN: AnnounceModes[0]="None"
AnnounceModes[0]="Ninguno"
; EN: AnnounceModes[1]="Minimal"
AnnounceModes[1]="Mínimos"
; EN: AnnounceModes[2]="All"
AnnounceModes[2]="Todos"
; EN: AudioAnnounce.Caption="Announcements"
AudioAnnounce.Caption="Anuncios"
; EN: AudioAnnounce.Hint="Adjusts the amount of in-game announcements."
AudioAnnounce.Hint="Establece la cantidad de comentarios durante el juego."
; EN: AudioAnnouncerPack.Caption="Announcer Voice"
AudioAnnouncerPack.Caption="Voz de Locutor"
; EN: AudioAnnouncerPack.Hint="Select the Announcer for tonight's game."
AudioAnnouncerPack.Hint="Selecciona el comentarista para el encuentro de esta noche."
; EN: AudioAutoTaunt.Caption="Auto-Taunt"
AudioAutoTaunt.Caption="Auto-Burla"
; EN: AudioAutoTaunt.Hint="Enables your in-game player to automatically taunt opponents."
AudioAutoTaunt.Hint="Permite que tu jugador se burle automáticamente de sus oponentes."
; EN: AudioEffectsVolumeLabel.Caption="Effects Volume"
AudioEffectsVolumeLabel.Caption="Volumen de Efectos"
; EN: AudioEffectsVolumeSlider.Hint="Changes the volume of all in game sound effects."
AudioEffectsVolumeSlider.Hint="Cambia el volumen de todos los efectos de sonido del juego."
; EN: AudioLowDetail.Caption="Low Sound Detail"
AudioLowDetail.Caption="Detalle de Sonido Bajo"
; EN: AudioLowDetail.Hint="Lowers quality of sound."
AudioLowDetail.Hint="Baja la calidad del sonido."
; EN: AudioMatureTaunts.Caption="Mature Taunts"
AudioMatureTaunts.Caption="Burlas para Adultos"
; EN: AudioMatureTaunts.Hint="Enables off-color commentary."
AudioMatureTaunts.Hint="Activa comentarios fuera de tono."
; EN: AudioMessageBeep.Caption="Message Beep"
AudioMessageBeep.Caption="Sonido de Mensaje"
; EN: AudioMessageBeep.Hint="Enables a beep when receiving a text message from other players."
AudioMessageBeep.Hint="Activa un sonido al recibir un mensaje de texto de otros jugadores."
; EN: AudioMode.Caption="Audio Mode"
AudioMode.Caption="Modo de Sonido"
; EN: AudioMode.Hint="Changes the audio system mode."
AudioMode.Hint="Cambia el modo del sistema de sonido."
; EN: AudioMusicVolumeLabel.Caption="Music Volume"
AudioMusicVolumeLabel.Caption="Volumen de Música"
; EN: AudioMusicVolumeSlider.Hint="Changes the volume of the background music."
AudioMusicVolumeSlider.Hint="Cambia el volumen de la música de fondo."
; EN: AudioPlayVoices.Caption="Play Voices"
AudioPlayVoices.Caption="Reproducir Voces"
; EN: AudioPlayVoices.Hint="Defines the types of voice messages to play."
AudioPlayVoices.Hint="Define los tipos de mensajes de voz a reproducir."
; EN: AudioReverseStereo.Caption="Reverse Stereo"
AudioReverseStereo.Caption="Invertir Estéreo"
; EN: AudioReverseStereo.Hint="Reverses the left and right audio channels."
AudioReverseStereo.Hint="Invierte los canales de sonido izquierdo y derecho."
; EN: AudioVoiceVolumeLabel.Caption="Announcer Volume"
AudioVoiceVolumeLabel.Caption="Volumen de Locutor"
; EN: AudioVoiceVolumeSlider.Hint="Changes the volume of all in game voice messages."
AudioVoiceVolumeSlider.Hint="Cambia el volumen de todos los mensajes de voz."

[Tab_ControlSettings]
; EN: Bindings=((KeyLabel="Movement"),(KeyLabel="Forward"),(KeyLabel="Backward"),(KeyLabel="Strafe Left"),(KeyLabel="Strafe Right"),(KeyLabel="Jump"),(KeyLabel="Walk"),(KeyLabel="Crouch"),(KeyLabel="Strafe Toggle"),(KeyLabel="Looking"),(KeyLabel="Turn Left"),(KeyLabel="Turn Right"),(KeyLabel="Look Up"),(KeyLabel="Look Down"),(KeyLabel="Center View"),(KeyLabel="Weapons"),(KeyLabel="Fire"),(KeyLabel="Alt-Fire"),(KeyLabel="Throw Weapon"),(KeyLabel="Best Weapon"),(KeyLabel="Next Weapon"),(KeyLabel="Prev Weapon"),(KeyLabel="Last Weapon"),(KeyLabel="Weapon Selection"),(KeyLabel="Super Weapon"),(KeyLabel="Shield Gun"),(KeyLabel="Assault Rifle"),(KeyLabel="Bio-Rifle"),(KeyLabel="Shock Rifle"),(KeyLabel="Link Gun"),(KeyLabel="Minigun"),(KeyLabel="Flak Cannon"),(KeyLabel="Rocket Launcher"),(KeyLabel="Lightning Rifle"),(KeyLabel="Translocator"),(KeyLabel="Communication"),(KeyLabel="Say"),(KeyLabel="Team Say"),(KeyLabel="Speech Menu"),(KeyLabel="Taunts"),(KeyLabel="Pelvic Thrust"),(KeyLabel="Ass Smack"),(KeyLabel="Throat Cut"),(KeyLabel="Hud"),(KeyLabel="Grow Hud"),(KeyLabel="Shrink Hud"),(KeyLabel="Miscellaneous"),(KeyLabel="Pause"),(KeyLabel="Screenshot"),(KeyLabel="Menu"),(KeyLabel="ScoreBoard"),(KeyLabel="ScoreBoard Toggle"),(KeyLabel="In Game Chat"),(KeyLabel="Server Info"))
Bindings=((KeyLabel="Movimiento"),(KeyLabel="Adelante"),(KeyLabel="Atrás"),(KeyLabel="Lateral a la izq."),(KeyLabel="Lateral a la dch."),(KeyLabel="Saltar"),(KeyLabel="Andar"),(KeyLabel="Agazaparse"),(KeyLabel="Activar despl. lateral"),(KeyLabel="Mirar"),(KeyLabel="Girar izq."),(KeyLabel="girar dcha."),(KeyLabel="Mirar arriba"),(KeyLabel="Mirar abajo"),(KeyLabel="Centrar vista"),(KeyLabel="Armas"),(KeyLabel="Disparo"),(KeyLabel="Disparo-alt"),(KeyLabel="Arrojar arma"),(KeyLabel="Mejor arma"),(KeyLabel="Arma siguiente"),(KeyLabel="Arma anterior"),(KeyLabel="Última arma"),(KeyLabel="Selección de arma"),(KeyLabel="Superarma"),(KeyLabel="Cañón protector"),(KeyLabel="Rifle de asalto"),(KeyLabel="Biorifle"),(KeyLabel="Rifle de choque"),(KeyLabel="Enlazadora"),(KeyLabel="Cañón automático"),(KeyLabel="Cañón antiaéreo"),(KeyLabel="Lanzacohetes"),(KeyLabel="Arma eléctrica"),(KeyLabel="Transportador"),(KeyLabel="Comunicación"),(KeyLabel="Decir"),(KeyLabel="Decir al equipo"),(KeyLabel="Menú de voz"),(KeyLabel="Burlas"),(KeyLabel="Baile pélvico"),(KeyLabel="Azote de culo"),(KeyLabel="Rajar garganta"),(KeyLabel="Hud"),(KeyLabel="Aumentar Hud"),(KeyLabel="Reducir Hud"),(KeyLabel="Miscelánea"),(KeyLabel="Pausa"),(KeyLabel="Capturar pantalla"),(KeyLabel="Menú"),(KeyLabel="Marcador"),(KeyLabel="Activar marcador"),(KeyLabel="Chat en juego"),(KeyLabel="Info de servidor"))
; EN: Labels=("Movement","Forward","Backward","Strafe Left","Strafe Right","Jump","Walk","Crouch","Strafe Toggle","Looking","Turn Left","Turn Right","Look Up","Look Down","Center View","Weapons","Fire","Alt-Fire","Throw Weapon","Best Weapon","Next Weapon","Prev Weapon","Last Weapon","Weapon Selection","Super Weapon","Shield Gun","Assault Rifle","Bio-Rifle","Shock Rifle","Link Gun","Minigun","Flak Cannon","Rocket Launcher","Lightning Rifle","Translocator","Communication","Say","Team Say","Speech Menu","Taunts","Pelvic Thrust","Ass Smack","Throat Cut","Hud","Grow Hud","Shrink Hud","Miscellaneous","Pause","Screenshot","Menu","ScoreBoard","ScoreBoard Toggle","In Game Chat","Server Info")